g9 1 1 0 1 20170614 0 4 0 240	# problem deconvc
 51 1 1 0 1	# vars, constraints, objectives, ranges, eqns
 1 1	# nonlinear constraints, objectives
 0 0	# network constraints: nonlinear, linear
 11 51 11	# nonlinear vars in constraints, objectives, both
 0 0 0 1	# linear network variables; functions; arith, flags
 0 0 0 0 0	# discrete variables: binary, integer, nonlinear (b,c,o)
 11 51	# nonzeros in Jacobian, gradients
 0 0	# max name lengths: constraints, variables
 0 0 0 0 385	# common exprs: b,c,o,c1,o1
b
2 0
2 0
2 0
2 0
2 0
2 0
2 0
2 0
2 0
2 0
2 0
2 0
2 0
2 0
2 0
2 0
2 0
2 0
2 0
2 0
2 0
2 0
2 0
2 0
2 0
2 0
2 0
2 0
2 0
2 0
2 0
2 0
2 0
2 0
2 0
2 0
2 0
2 0
2 0
2 0
2 0
2 0
2 0
2 0
2 0
2 0
2 0
2 0
2 0
2 0
2 0
x51
0 0.01
1 0.02
2 0.4
3 0.6
4 0.8
5 3
6 0.8
7 0.6
8 0.44
9 0.01
10 0.01
11 0
12 0
13 0
14 0
15 0
16 0
17 0
18 0
19 0
20 0
21 0
22 0
23 0
24 0
25 0
26 0
27 0
28 0
29 0
30 0
31 0
32 0
33 0
34 0
35 0
36 0
37 0
38 0
39 0
40 0
41 0
42 0
43 0
44 0
45 0
46 0
47 0
48 0
49 0
50 0
r
4 12.35
C0
o54
11
o5
v0
n2
o5
v1
n2
o5
v2
n2
o5
v3
n2
o5
v4
n2
o5
v5
n2
o5
v6
n2
o5
v7
n2
o5
v8
n2
o5
v9
n2
o5
v10
n2
V51 0 2
o2
v0
v11
V52 0 2
o2
v0
v12
V53 0 2
o2
v1
v11
V54 0 2
o2
v0
v13
V55 0 2
o2
v1
v12
V56 0 2
o2
v2
v11
V57 0 2
o2
v0
v14
V58 0 2
o2
v1
v13
V59 0 2
o2
v2
v12
V60 0 2
o2
v3
v11
V61 0 2
o2
v0
v15
V62 0 2
o2
v1
v14
V63 0 2
o2
v2
v13
V64 0 2
o2
v3
v12
V65 0 2
o2
v4
v11
V66 0 2
o2
v0
v16
V67 0 2
o2
v1
v15
V68 0 2
o2
v2
v14
V69 0 2
o2
v3
v13
V70 0 2
o2
v4
v12
V71 0 2
o2
v5
v11
V72 0 2
o2
v0
v17
V73 0 2
o2
v1
v16
V74 0 2
o2
v2
v15
V75 0 2
o2
v3
v14
V76 0 2
o2
v4
v13
V77 0 2
o2
v5
v12
V78 0 2
o2
v6
v11
V79 0 2
o2
v0
v18
V80 0 2
o2
v1
v17
V81 0 2
o2
v2
v16
V82 0 2
o2
v3
v15
V83 0 2
o2
v4
v14
V84 0 2
o2
v5
v13
V85 0 2
o2
v6
v12
V86 0 2
o2
v7
v11
V87 0 2
o2
v0
v19
V88 0 2
o2
v1
v18
V89 0 2
o2
v2
v17
V90 0 2
o2
v3
v16
V91 0 2
o2
v4
v15
V92 0 2
o2
v5
v14
V93 0 2
o2
v6
v13
V94 0 2
o2
v7
v12
V95 0 2
o2
v8
v11
V96 0 2
o2
v0
v20
V97 0 2
o2
v1
v19
V98 0 2
o2
v2
v18
V99 0 2
o2
v3
v17
V100 0 2
o2
v4
v16
V101 0 2
o2
v5
v15
V102 0 2
o2
v6
v14
V103 0 2
o2
v7
v13
V104 0 2
o2
v8
v12
V105 0 2
o2
v9
v11
V106 0 2
o2
v0
v21
V107 0 2
o2
v1
v20
V108 0 2
o2
v2
v19
V109 0 2
o2
v3
v18
V110 0 2
o2
v4
v17
V111 0 2
o2
v5
v16
V112 0 2
o2
v6
v15
V113 0 2
o2
v7
v14
V114 0 2
o2
v8
v13
V115 0 2
o2
v9
v12
V116 0 2
o2
v10
v11
V117 0 2
o2
v0
v22
V118 0 2
o2
v1
v21
V119 0 2
o2
v2
v20
V120 0 2
o2
v3
v19
V121 0 2
o2
v4
v18
V122 0 2
o2
v5
v17
V123 0 2
o2
v6
v16
V124 0 2
o2
v7
v15
V125 0 2
o2
v8
v14
V126 0 2
o2
v9
v13
V127 0 2
o2
v10
v12
V128 0 2
o2
v0
v23
V129 0 2
o2
v1
v22
V130 0 2
o2
v2
v21
V131 0 2
o2
v3
v20
V132 0 2
o2
v4
v19
V133 0 2
o2
v5
v18
V134 0 2
o2
v6
v17
V135 0 2
o2
v7
v16
V136 0 2
o2
v8
v15
V137 0 2
o2
v9
v14
V138 0 2
o2
v10
v13
V139 0 2
o2
v0
v24
V140 0 2
o2
v1
v23
V141 0 2
o2
v2
v22
V142 0 2
o2
v3
v21
V143 0 2
o2
v4
v20
V144 0 2
o2
v5
v19
V145 0 2
o2
v6
v18
V146 0 2
o2
v7
v17
V147 0 2
o2
v8
v16
V148 0 2
o2
v9
v15
V149 0 2
o2
v10
v14
V150 0 2
o2
v0
v25
V151 0 2
o2
v1
v24
V152 0 2
o2
v2
v23
V153 0 2
o2
v3
v22
V154 0 2
o2
v4
v21
V155 0 2
o2
v5
v20
V156 0 2
o2
v6
v19
V157 0 2
o2
v7
v18
V158 0 2
o2
v8
v17
V159 0 2
o2
v9
v16
V160 0 2
o2
v10
v15
V161 0 2
o2
v0
v26
V162 0 2
o2
v1
v25
V163 0 2
o2
v2
v24
V164 0 2
o2
v3
v23
V165 0 2
o2
v4
v22
V166 0 2
o2
v5
v21
V167 0 2
o2
v6
v20
V168 0 2
o2
v7
v19
V169 0 2
o2
v8
v18
V170 0 2
o2
v9
v17
V171 0 2
o2
v10
v16
V172 0 2
o2
v0
v27
V173 0 2
o2
v1
v26
V174 0 2
o2
v2
v25
V175 0 2
o2
v3
v24
V176 0 2
o2
v4
v23
V177 0 2
o2
v5
v22
V178 0 2
o2
v6
v21
V179 0 2
o2
v7
v20
V180 0 2
o2
v8
v19
V181 0 2
o2
v9
v18
V182 0 2
o2
v10
v17
V183 0 2
o2
v0
v28
V184 0 2
o2
v1
v27
V185 0 2
o2
v2
v26
V186 0 2
o2
v3
v25
V187 0 2
o2
v4
v24
V188 0 2
o2
v5
v23
V189 0 2
o2
v6
v22
V190 0 2
o2
v7
v21
V191 0 2
o2
v8
v20
V192 0 2
o2
v9
v19
V193 0 2
o2
v10
v18
V194 0 2
o2
v0
v29
V195 0 2
o2
v1
v28
V196 0 2
o2
v2
v27
V197 0 2
o2
v3
v26
V198 0 2
o2
v4
v25
V199 0 2
o2
v5
v24
V200 0 2
o2
v6
v23
V201 0 2
o2
v7
v22
V202 0 2
o2
v8
v21
V203 0 2
o2
v9
v20
V204 0 2
o2
v10
v19
V205 0 2
o2
v0
v30
V206 0 2
o2
v1
v29
V207 0 2
o2
v2
v28
V208 0 2
o2
v3
v27
V209 0 2
o2
v4
v26
V210 0 2
o2
v5
v25
V211 0 2
o2
v6
v24
V212 0 2
o2
v7
v23
V213 0 2
o2
v8
v22
V214 0 2
o2
v9
v21
V215 0 2
o2
v10
v20
V216 0 2
o2
v0
v31
V217 0 2
o2
v1
v30
V218 0 2
o2
v2
v29
V219 0 2
o2
v3
v28
V220 0 2
o2
v4
v27
V221 0 2
o2
v5
v26
V222 0 2
o2
v6
v25
V223 0 2
o2
v7
v24
V224 0 2
o2
v8
v23
V225 0 2
o2
v9
v22
V226 0 2
o2
v10
v21
V227 0 2
o2
v0
v32
V228 0 2
o2
v1
v31
V229 0 2
o2
v2
v30
V230 0 2
o2
v3
v29
V231 0 2
o2
v4
v28
V232 0 2
o2
v5
v27
V233 0 2
o2
v6
v26
V234 0 2
o2
v7
v25
V235 0 2
o2
v8
v24
V236 0 2
o2
v9
v23
V237 0 2
o2
v10
v22
V238 0 2
o2
v0
v33
V239 0 2
o2
v1
v32
V240 0 2
o2
v2
v31
V241 0 2
o2
v3
v30
V242 0 2
o2
v4
v29
V243 0 2
o2
v5
v28
V244 0 2
o2
v6
v27
V245 0 2
o2
v7
v26
V246 0 2
o2
v8
v25
V247 0 2
o2
v9
v24
V248 0 2
o2
v10
v23
V249 0 2
o2
v0
v34
V250 0 2
o2
v1
v33
V251 0 2
o2
v2
v32
V252 0 2
o2
v3
v31
V253 0 2
o2
v4
v30
V254 0 2
o2
v5
v29
V255 0 2
o2
v6
v28
V256 0 2
o2
v7
v27
V257 0 2
o2
v8
v26
V258 0 2
o2
v9
v25
V259 0 2
o2
v10
v24
V260 0 2
o2
v0
v35
V261 0 2
o2
v1
v34
V262 0 2
o2
v2
v33
V263 0 2
o2
v3
v32
V264 0 2
o2
v4
v31
V265 0 2
o2
v5
v30
V266 0 2
o2
v6
v29
V267 0 2
o2
v7
v28
V268 0 2
o2
v8
v27
V269 0 2
o2
v9
v26
V270 0 2
o2
v10
v25
V271 0 2
o2
v0
v36
V272 0 2
o2
v1
v35
V273 0 2
o2
v2
v34
V274 0 2
o2
v3
v33
V275 0 2
o2
v4
v32
V276 0 2
o2
v5
v31
V277 0 2
o2
v6
v30
V278 0 2
o2
v7
v29
V279 0 2
o2
v8
v28
V280 0 2
o2
v9
v27
V281 0 2
o2
v10
v26
V282 0 2
o2
v0
v37
V283 0 2
o2
v1
v36
V284 0 2
o2
v2
v35
V285 0 2
o2
v3
v34
V286 0 2
o2
v4
v33
V287 0 2
o2
v5
v32
V288 0 2
o2
v6
v31
V289 0 2
o2
v7
v30
V290 0 2
o2
v8
v29
V291 0 2
o2
v9
v28
V292 0 2
o2
v10
v27
V293 0 2
o2
v0
v38
V294 0 2
o2
v1
v37
V295 0 2
o2
v2
v36
V296 0 2
o2
v3
v35
V297 0 2
o2
v4
v34
V298 0 2
o2
v5
v33
V299 0 2
o2
v6
v32
V300 0 2
o2
v7
v31
V301 0 2
o2
v8
v30
V302 0 2
o2
v9
v29
V303 0 2
o2
v10
v28
V304 0 2
o2
v0
v39
V305 0 2
o2
v1
v38
V306 0 2
o2
v2
v37
V307 0 2
o2
v3
v36
V308 0 2
o2
v4
v35
V309 0 2
o2
v5
v34
V310 0 2
o2
v6
v33
V311 0 2
o2
v7
v32
V312 0 2
o2
v8
v31
V313 0 2
o2
v9
v30
V314 0 2
o2
v10
v29
V315 0 2
o2
v0
v40
V316 0 2
o2
v1
v39
V317 0 2
o2
v2
v38
V318 0 2
o2
v3
v37
V319 0 2
o2
v4
v36
V320 0 2
o2
v5
v35
V321 0 2
o2
v6
v34
V322 0 2
o2
v7
v33
V323 0 2
o2
v8
v32
V324 0 2
o2
v9
v31
V325 0 2
o2
v10
v30
V326 0 2
o2
v0
v41
V327 0 2
o2
v1
v40
V328 0 2
o2
v2
v39
V329 0 2
o2
v3
v38
V330 0 2
o2
v4
v37
V331 0 2
o2
v5
v36
V332 0 2
o2
v6
v35
V333 0 2
o2
v7
v34
V334 0 2
o2
v8
v33
V335 0 2
o2
v9
v32
V336 0 2
o2
v10
v31
V337 0 2
o2
v0
v42
V338 0 2
o2
v1
v41
V339 0 2
o2
v2
v40
V340 0 2
o2
v3
v39
V341 0 2
o2
v4
v38
V342 0 2
o2
v5
v37
V343 0 2
o2
v6
v36
V344 0 2
o2
v7
v35
V345 0 2
o2
v8
v34
V346 0 2
o2
v9
v33
V347 0 2
o2
v10
v32
V348 0 2
o2
v0
v43
V349 0 2
o2
v1
v42
V350 0 2
o2
v2
v41
V351 0 2
o2
v3
v40
V352 0 2
o2
v4
v39
V353 0 2
o2
v5
v38
V354 0 2
o2
v6
v37
V355 0 2
o2
v7
v36
V356 0 2
o2
v8
v35
V357 0 2
o2
v9
v34
V358 0 2
o2
v10
v33
V359 0 2
o2
v0
v44
V360 0 2
o2
v1
v43
V361 0 2
o2
v2
v42
V362 0 2
o2
v3
v41
V363 0 2
o2
v4
v40
V364 0 2
o2
v5
v39
V365 0 2
o2
v6
v38
V366 0 2
o2
v7
v37
V367 0 2
o2
v8
v36
V368 0 2
o2
v9
v35
V369 0 2
o2
v10
v34
V370 0 2
o2
v0
v45
V371 0 2
o2
v1
v44
V372 0 2
o2
v2
v43
V373 0 2
o2
v3
v42
V374 0 2
o2
v4
v41
V375 0 2
o2
v5
v40
V376 0 2
o2
v6
v39
V377 0 2
o2
v7
v38
V378 0 2
o2
v8
v37
V379 0 2
o2
v9
v36
V380 0 2
o2
v10
v35
V381 0 2
o2
v0
v46
V382 0 2
o2
v1
v45
V383 0 2
o2
v2
v44
V384 0 2
o2
v3
v43
V385 0 2
o2
v4
v42
V386 0 2
o2
v5
v41
V387 0 2
o2
v6
v40
V388 0 2
o2
v7
v39
V389 0 2
o2
v8
v38
V390 0 2
o2
v9
v37
V391 0 2
o2
v10
v36
V392 0 2
o2
v0
v47
V393 0 2
o2
v1
v46
V394 0 2
o2
v2
v45
V395 0 2
o2
v3
v44
V396 0 2
o2
v4
v43
V397 0 2
o2
v5
v42
V398 0 2
o2
v6
v41
V399 0 2
o2
v7
v40
V400 0 2
o2
v8
v39
V401 0 2
o2
v9
v38
V402 0 2
o2
v10
v37
V403 0 2
o2
v0
v48
V404 0 2
o2
v1
v47
V405 0 2
o2
v2
v46
V406 0 2
o2
v3
v45
V407 0 2
o2
v4
v44
V408 0 2
o2
v5
v43
V409 0 2
o2
v6
v42
V410 0 2
o2
v7
v41
V411 0 2
o2
v8
v40
V412 0 2
o2
v9
v39
V413 0 2
o2
v10
v38
V414 0 2
o2
v0
v49
V415 0 2
o2
v1
v48
V416 0 2
o2
v2
v47
V417 0 2
o2
v3
v46
V418 0 2
o2
v4
v45
V419 0 2
o2
v5
v44
V420 0 2
o2
v6
v43
V421 0 2
o2
v7
v42
V422 0 2
o2
v8
v41
V423 0 2
o2
v9
v40
V424 0 2
o2
v10
v39
V425 0 2
o2
v0
v50
V426 0 2
o2
v1
v49
V427 0 2
o2
v2
v48
V428 0 2
o2
v3
v47
V429 0 2
o2
v4
v46
V430 0 2
o2
v5
v45
V431 0 2
o2
v6
v44
V432 0 2
o2
v7
v43
V433 0 2
o2
v8
v42
V434 0 2
o2
v9
v41
V435 0 2
o2
v10
v40
O0 0
o54
40
o5
v51
n2
o5
o0
v52
v53
n2
o5
o0
n-0.0016
o54
3
v54
v55
v56
n2
o5
o0
n-0.0054
o54
4
v57
v58
v59
v60
n2
o5
o0
n-0.0702
o54
5
v61
v62
v63
v64
v65
n2
o5
o0
n-0.1876
o54
6
v66
v67
v68
v69
v70
v71
n2
o5
o0
n-0.332
o54
7
v72
v73
v74
v75
v76
v77
v78
n2
o5
o0
n-0.764
o54
8
v79
v80
v81
v82
v83
v84
v85
v86
n2
o5
o0
n-0.932
o54
9
v87
v88
v89
v90
v91
v92
v93
v94
v95
n2
o5
o0
n-0.812
o54
10
v96
v97
v98
v99
v100
v101
v102
v103
v104
v105
n2
o5
o0
n-0.3464
o54
11
v106
v107
v108
v109
v110
v111
v112
v113
v114
v115
v116
n2
o5
o0
n-0.2064
o54
11
v117
v118
v119
v120
v121
v122
v123
v124
v125
v126
v127
n2
o5
o0
n-0.083
o54
11
v128
v129
v130
v131
v132
v133
v134
v135
v136
v137
v138
n2
o5
o0
n-0.034
o54
11
v139
v140
v141
v142
v143
v144
v145
v146
v147
v148
v149
n2
o5
o0
n-0.06179999
o54
11
v150
v151
v152
v153
v154
v155
v156
v157
v158
v159
v160
n2
o5
o0
n-1.2
o54
11
v161
v162
v163
v164
v165
v166
v167
v168
v169
v170
v171
n2
o5
o0
n-1.8
o54
11
v172
v173
v174
v175
v176
v177
v178
v179
v180
v181
v182
n2
o5
o0
n-2.4
o54
11
v183
v184
v185
v186
v187
v188
v189
v190
v191
v192
v193
n2
o5
o0
n-9
o54
11
v194
v195
v196
v197
v198
v199
v200
v201
v202
v203
v204
n2
o5
o0
n-2.4
o54
11
v205
v206
v207
v208
v209
v210
v211
v212
v213
v214
v215
n2
o5
o0
n-1.801
o54
11
v216
v217
v218
v219
v220
v221
v222
v223
v224
v225
v226
n2
o5
o0
n-1.325
o54
11
v227
v228
v229
v230
v231
v232
v233
v234
v235
v236
v237
n2
o5
o0
n-0.0762
o54
11
v238
v239
v240
v241
v242
v243
v244
v245
v246
v247
v248
n2
o5
o0
n-0.2104
o54
11
v249
v250
v251
v252
v253
v254
v255
v256
v257
v258
v259
n2
o5
o0
n-0.268
o54
11
v260
v261
v262
v263
v264
v265
v266
v267
v268
v269
v270
n2
o5
o0
n-0.552
o54
11
v271
v272
v273
v274
v275
v276
v277
v278
v279
v280
v281
n2
o5
o0
n-0.996
o54
11
v282
v283
v284
v285
v286
v287
v288
v289
v290
v291
v292
n2
o5
o0
n-0.36
o54
11
v293
v294
v295
v296
v297
v298
v299
v300
v301
v302
v303
n2
o5
o0
n-0.24
o54
11
v304
v305
v306
v307
v308
v309
v310
v311
v312
v313
v314
n2
o5
o0
n-0.151
o54
11
v315
v316
v317
v318
v319
v320
v321
v322
v323
v324
v325
n2
o5
o0
n-0.0248
o54
11
v326
v327
v328
v329
v330
v331
v332
v333
v334
v335
v336
n2
o5
o0
n-0.2432
o54
11
v337
v338
v339
v340
v341
v342
v343
v344
v345
v346
v347
n2
o5
o0
n-0.3602
o54
11
v348
v349
v350
v351
v352
v353
v354
v355
v356
v357
v358
n2
o5
o0
n-0.48
o54
11
v359
v360
v361
v362
v363
v364
v365
v366
v367
v368
v369
n2
o5
o0
n-1.8
o54
11
v370
v371
v372
v373
v374
v375
v376
v377
v378
v379
v380
n2
o5
o0
n-0.48
o54
11
v381
v382
v383
v384
v385
v386
v387
v388
v389
v390
v391
n2
o5
o0
n-0.36
o54
11
v392
v393
v394
v395
v396
v397
v398
v399
v400
v401
v402
n2
o5
o0
n-0.264
o54
11
v403
v404
v405
v406
v407
v408
v409
v410
v411
v412
v413
n2
o5
o0
n-0.006
o54
11
v414
v415
v416
v417
v418
v419
v420
v421
v422
v423
v424
n2
o5
o0
n-0.006
o54
11
v425
v426
v427
v428
v429
v430
v431
v432
v433
v434
v435
n2
k50
1
2
3
4
5
6
7
8
9
10
11
11
11
11
11
11
11
11
11
11
11
11
11
11
11
11
11
11
11
11
11
11
11
11
11
11
11
11
11
11
11
11
11
11
11
11
11
11
11
11
J0 11
0 0
1 0
2 0
3 0
4 0
5 0
6 0
7 0
8 0
9 0
10 0
G0 51
0 0
1 0
2 0
3 0
4 0
5 0
6 0
7 0
8 0
9 0
10 0
11 0
12 0
13 0
14 0
15 0
16 0
17 0
18 0
19 0
20 0
21 0
22 0
23 0
24 0
25 0
26 0
27 0
28 0
29 0
30 0
31 0
32 0
33 0
34 0
35 0
36 0
37 0
38 0
39 0
40 0
41 0
42 0
43 0
44 0
45 0
46 0
47 0
48 0
49 0
50 0
